(set-logic QF_NRA)
(set-info :source |Benchmarks generated from hycomp (https://es-static.fbk.eu/tools/hycomp/). BMC instances of non-linear hybrid automata taken from: Alessandro Cimatti, Sergio Mover, Stefano Tonetta, A quantifier-free SMT encoding of non-linear hybrid automata, FMCAD 2012 and Alessandro Cimatti, Sergio Mover, Stefano Tonetta, Quantier-free encoding of invariants for Hybrid Systems, Formal Methods in System Design. This instance solves a BMC problem of depth 2 and uses the quantifier free encoding with equivalences encoding. Contacts: Sergio Mover (mover@fbk.eu), Stefano Tonetta (tonettas@fbk.eu), Alessandro Cimatti (cimatti@fbk.eu).|)
(set-info :smt-lib-version 2.0)
(set-info :category "industrial")
(set-info :status unsat)
;; MathSAT API call trace
;; generated on Mon Mar 19 10:42:05 2012
(declare-fun b.counter.3__AT1 () Bool)
(declare-fun b.EVENT.1__AT0 () Bool)
(declare-fun b.x__AT0 () Real)
(declare-fun b.speed_x__AT1 () Real)
(declare-fun b.time__AT1 () Real)
(declare-fun g__AT0 () Real)
(declare-fun b.y__AT0 () Real)
(declare-fun b.time__AT2 () Real)
(declare-fun b.EVENT.0__AT1 () Bool)
(declare-fun b.speed_y__AT1 () Real)
(declare-fun b.y__AT2 () Real)
(declare-fun b.delta__AT1 () Real)
(declare-fun b.counter.0__AT0 () Bool)
(declare-fun b.delta__AT2 () Real)
(declare-fun b.EVENT.1__AT1 () Bool)
(declare-fun b.counter.0__AT2 () Bool)
(declare-fun b.counter.1__AT0 () Bool)
(declare-fun b.x__AT2 () Real)
(declare-fun b.delta__AT0 () Real)
(declare-fun b.EVENT.0__AT2 () Bool)
(declare-fun b.counter.1__AT2 () Bool)
(declare-fun b.EVENT.0__AT0 () Bool)
(declare-fun b.EVENT.1__AT2 () Bool)
(declare-fun b.counter.2__AT2 () Bool)
(declare-fun b.counter.3__AT2 () Bool)
(declare-fun b.x__AT1 () Real)
(declare-fun b.speed_x__AT2 () Real)
(declare-fun b.speed_y__AT0 () Real)
(declare-fun b.speed_y__AT2 () Real)
(declare-fun b.counter.3__AT0 () Bool)
(declare-fun b.event_is_timed__AT0 () Bool)
(declare-fun speed_loss__AT0 () Real)
(declare-fun b.y__AT1 () Real)
(declare-fun b.event_is_timed__AT1 () Bool)
(declare-fun b.counter.0__AT1 () Bool)
(declare-fun b.speed_x__AT0 () Real)
(declare-fun b.counter.1__AT1 () Bool)
(declare-fun b.time__AT0 () Real)
(declare-fun b.counter.2__AT0 () Bool)
(declare-fun b.event_is_timed__AT2 () Bool)
(declare-fun b.counter.2__AT1 () Bool)
(assert (let ((.def_82 (* (- 1.0) g__AT0)))
(let ((.def_83 (* (/ 1 2) .def_82)))
(let ((.def_91 (* 2.0 .def_83)))
(let ((.def_463 (* .def_91 b.delta__AT2)))
(let ((.def_464 (+ b.speed_y__AT2 .def_463)))
(let ((.def_468 (<= .def_464 0.0 )))
(let ((.def_467 (<= b.speed_y__AT2 0.0 )))
(let ((.def_469 (and .def_467 .def_468)))
(let ((.def_465 (<= 0.0 .def_464)))
(let ((.def_462 (<= 0.0 b.speed_y__AT2)))
(let ((.def_466 (and .def_462 .def_465)))
(let ((.def_470 (or .def_466 .def_469)))
(let ((.def_457 (* b.speed_y__AT2 b.delta__AT2)))
(let ((.def_455 (* b.delta__AT2 b.delta__AT2)))
(let ((.def_456 (* .def_83 .def_455)))
(let ((.def_458 (+ .def_456 .def_457)))
(let ((.def_459 (+ b.y__AT2 .def_458)))
(let ((.def_460 (<= 0.0 .def_459)))
(let ((.def_437 (<= 0.0 b.y__AT2)))
(let ((.def_461 (and .def_437 .def_460)))
(let ((.def_471 (and .def_461 .def_470)))
(let ((.def_63 (<= g__AT0 10.0 )))
(let ((.def_62 (<= 8.0 g__AT0)))
(let ((.def_64 (and .def_62 .def_63)))
(let ((.def_472 (and .def_64 .def_471)))
(let ((.def_71 (<= speed_loss__AT0 (/ 1 2))))
(let ((.def_68 (<= (/ 1 10) speed_loss__AT0)))
(let ((.def_72 (and .def_68 .def_71)))
(let ((.def_473 (and .def_72 .def_472)))
(let ((.def_158 (not b.counter.0__AT1)))
(let ((.def_447 (or b.counter.1__AT1 .def_158)))
(let ((.def_448 (or b.counter.2__AT1 .def_447)))
(let ((.def_146 (not b.counter.1__AT1)))
(let ((.def_442 (and .def_146 .def_158)))
(let ((.def_153 (not b.counter.2__AT1)))
(let ((.def_446 (or .def_153 .def_442)))
(let ((.def_449 (and .def_446 .def_448)))
(let ((.def_450 (or b.counter.3__AT1 .def_449)))
(let ((.def_443 (or b.counter.2__AT1 .def_442)))
(let ((.def_441 (or .def_146 .def_153)))
(let ((.def_444 (and .def_441 .def_443)))
(let ((.def_168 (not b.counter.3__AT1)))
(let ((.def_445 (or .def_168 .def_444)))
(let ((.def_451 (and .def_445 .def_450)))
(let ((.def_73 (and .def_64 .def_72)))
(let ((.def_438 (and .def_73 .def_437)))
(let ((.def_434 (not b.EVENT.0__AT2)))
(let ((.def_432 (not b.EVENT.1__AT2)))
(let ((.def_435 (or .def_432 .def_434)))
(let ((.def_9 (not b.counter.0__AT2)))
(let ((.def_6 (not b.counter.1__AT2)))
(let ((.def_425 (or .def_6 .def_9)))
(let ((.def_429 (or b.counter.3__AT2 .def_425)))
(let ((.def_426 (or b.counter.2__AT2 .def_425)))
(let ((.def_4 (not b.counter.2__AT2)))
(let ((.def_424 (or .def_4 .def_9)))
(let ((.def_427 (and .def_424 .def_426)))
(let ((.def_14 (not b.counter.3__AT2)))
(let ((.def_428 (or .def_14 .def_427)))
(let ((.def_430 (and .def_428 .def_429)))
(let ((.def_436 (and .def_430 .def_435)))
(let ((.def_439 (and .def_436 .def_438)))
(let ((.def_419 (<= 0.0 b.delta__AT1)))
(let ((.def_256 (not b.EVENT.0__AT1)))
(let ((.def_254 (not b.EVENT.1__AT1)))
(let ((.def_322 (and .def_254 .def_256)))
(let ((.def_323 (not .def_322)))
(let ((.def_420 (or .def_323 .def_419)))
(let ((.def_421 (or b.EVENT.1__AT1 .def_420)))
(let ((.def_368 (= b.counter.0__AT2 b.counter.0__AT1)))
(let ((.def_366 (= b.counter.1__AT2 b.counter.1__AT1)))
(let ((.def_364 (= b.counter.2__AT2 b.counter.2__AT1)))
(let ((.def_363 (= b.counter.3__AT2 b.counter.3__AT1)))
(let ((.def_365 (and .def_363 .def_364)))
(let ((.def_367 (and .def_365 .def_366)))
(let ((.def_369 (and .def_367 .def_368)))
(let ((.def_416 (or .def_323 .def_369)))
(let ((.def_417 (or b.EVENT.1__AT1 .def_416)))
(let ((.def_376 (= b.x__AT1 b.x__AT2)))
(let ((.def_373 (= b.y__AT1 b.y__AT2)))
(let ((.def_410 (and .def_373 .def_376)))
(let ((.def_303 (= b.speed_x__AT1 b.speed_x__AT2)))
(let ((.def_411 (and .def_303 .def_410)))
(let ((.def_362 (= b.speed_y__AT1 b.speed_y__AT2)))
(let ((.def_412 (and .def_362 .def_411)))
(let ((.def_407 (= b.delta__AT1 0.0 )))
(let ((.def_408 (and .def_322 .def_407)))
(let ((.def_409 (not .def_408)))
(let ((.def_413 (or .def_409 .def_412)))
(let ((.def_414 (or b.EVENT.1__AT1 .def_413)))
(let ((.def_387 (= b.time__AT1 b.time__AT2)))
(let ((.def_399 (and .def_376 .def_387)))
(let ((.def_400 (and .def_373 .def_399)))
(let ((.def_401 (and .def_303 .def_400)))
(let ((.def_402 (and .def_362 .def_401)))
(let ((.def_403 (and .def_369 .def_402)))
(let ((.def_404 (or .def_254 .def_403)))
(let ((.def_390 (* (- 1.0) b.time__AT2)))
(let ((.def_393 (+ b.delta__AT1 .def_390)))
(let ((.def_394 (+ b.time__AT1 .def_393)))
(let ((.def_395 (= .def_394 0.0 )))
(let ((.def_396 (or .def_323 .def_395)))
(let ((.def_397 (or b.EVENT.1__AT1 .def_396)))
(let ((.def_388 (or .def_322 .def_387)))
(let ((.def_389 (or b.EVENT.1__AT1 .def_388)))
(let ((.def_398 (and .def_389 .def_397)))
(let ((.def_405 (and .def_398 .def_404)))
(let ((.def_383 (= .def_323 b.event_is_timed__AT2)))
(let ((.def_381 (= b.event_is_timed__AT1 .def_322)))
(let ((.def_384 (and .def_381 .def_383)))
(let ((.def_370 (and .def_362 .def_369)))
(let ((.def_283 (<= 0.0 b.speed_y__AT1)))
(let ((.def_326 (not .def_283)))
(let ((.def_325 (= b.y__AT1 0.0 )))
(let ((.def_327 (and .def_325 .def_326)))
(let ((.def_371 (or .def_327 .def_370)))
(let ((.def_339 (or .def_9 b.counter.0__AT1)))
(let ((.def_338 (or b.counter.0__AT2 .def_158)))
(let ((.def_340 (and .def_338 .def_339)))
(let ((.def_341 (and .def_6 .def_340)))
(let ((.def_342 (or b.counter.1__AT1 .def_341)))
(let ((.def_337 (or b.counter.1__AT2 .def_146)))
(let ((.def_343 (and .def_337 .def_342)))
(let ((.def_354 (and .def_4 .def_343)))
(let ((.def_355 (or b.counter.2__AT1 .def_354)))
(let ((.def_349 (and .def_6 .def_158)))
(let ((.def_350 (or b.counter.1__AT1 .def_349)))
(let ((.def_351 (and .def_337 .def_350)))
(let ((.def_352 (and b.counter.2__AT2 .def_351)))
(let ((.def_353 (or .def_153 .def_352)))
(let ((.def_356 (and .def_353 .def_355)))
(let ((.def_357 (and b.counter.3__AT2 .def_356)))
(let ((.def_358 (or b.counter.3__AT1 .def_357)))
(let ((.def_344 (and b.counter.2__AT2 .def_343)))
(let ((.def_345 (or b.counter.2__AT1 .def_344)))
(let ((.def_333 (or b.counter.1__AT2 b.counter.1__AT1)))
(let ((.def_331 (and .def_6 b.counter.0__AT2)))
(let ((.def_332 (or .def_146 .def_331)))
(let ((.def_334 (and .def_332 .def_333)))
(let ((.def_335 (and .def_4 .def_334)))
(let ((.def_336 (or .def_153 .def_335)))
(let ((.def_346 (and .def_336 .def_345)))
(let ((.def_347 (and .def_14 .def_346)))
(let ((.def_348 (or .def_168 .def_347)))
(let ((.def_359 (and .def_348 .def_358)))
(let ((.def_141 (* (- 1.0) speed_loss__AT0)))
(let ((.def_142 (+ 1.0 .def_141)))
(let ((.def_119 (* (- 1.0) b.speed_y__AT1)))
(let ((.def_329 (* .def_119 .def_142)))
(let ((.def_330 (= b.speed_y__AT2 .def_329)))
(let ((.def_360 (and .def_330 .def_359)))
(let ((.def_328 (not .def_327)))
(let ((.def_361 (or .def_328 .def_360)))
(let ((.def_372 (and .def_361 .def_371)))
(let ((.def_374 (and .def_372 .def_373)))
(let ((.def_375 (and .def_303 .def_374)))
(let ((.def_377 (and .def_375 .def_376)))
(let ((.def_378 (or .def_322 .def_377)))
(let ((.def_379 (or b.EVENT.1__AT1 .def_378)))
(let ((.def_313 (* (- 1.0) b.y__AT2)))
(let ((.def_278 (* b.speed_y__AT1 b.delta__AT1)))
(let ((.def_317 (+ .def_278 .def_313)))
(let ((.def_276 (* b.delta__AT1 b.delta__AT1)))
(let ((.def_277 (* .def_83 .def_276)))
(let ((.def_318 (+ .def_277 .def_317)))
(let ((.def_319 (+ b.y__AT1 .def_318)))
(let ((.def_320 (= .def_319 0.0 )))
(let ((.def_307 (* (- 1.0) b.speed_y__AT2)))
(let ((.def_305 (* .def_82 b.delta__AT1)))
(let ((.def_308 (+ .def_305 .def_307)))
(let ((.def_309 (+ b.speed_y__AT1 .def_308)))
(let ((.def_310 (= .def_309 0.0 )))
(let ((.def_298 (* (- 1.0) b.x__AT2)))
(let ((.def_296 (* b.speed_x__AT1 b.delta__AT1)))
(let ((.def_299 (+ .def_296 .def_298)))
(let ((.def_300 (+ b.x__AT1 .def_299)))
(let ((.def_301 (= .def_300 0.0 )))
(let ((.def_304 (and .def_301 .def_303)))
(let ((.def_311 (and .def_304 .def_310)))
(let ((.def_321 (and .def_311 .def_320)))
(let ((.def_324 (or .def_321 .def_323)))
(let ((.def_380 (and .def_324 .def_379)))
(let ((.def_385 (and .def_380 .def_384)))
(let ((.def_406 (and .def_385 .def_405)))
(let ((.def_415 (and .def_406 .def_414)))
(let ((.def_418 (and .def_415 .def_417)))
(let ((.def_422 (and .def_418 .def_421)))
(let ((.def_423 (and .def_254 .def_422)))
(let ((.def_440 (and .def_423 .def_439)))
(let ((.def_452 (and .def_440 .def_451)))
(let ((.def_284 (* .def_91 b.delta__AT1)))
(let ((.def_285 (+ b.speed_y__AT1 .def_284)))
(let ((.def_289 (<= .def_285 0.0 )))
(let ((.def_288 (<= b.speed_y__AT1 0.0 )))
(let ((.def_290 (and .def_288 .def_289)))
(let ((.def_286 (<= 0.0 .def_285)))
(let ((.def_287 (and .def_283 .def_286)))
(let ((.def_291 (or .def_287 .def_290)))
(let ((.def_279 (+ .def_277 .def_278)))
(let ((.def_280 (+ b.y__AT1 .def_279)))
(let ((.def_281 (<= 0.0 .def_280)))
(let ((.def_259 (<= 0.0 b.y__AT1)))
(let ((.def_282 (and .def_259 .def_281)))
(let ((.def_292 (and .def_282 .def_291)))
(let ((.def_293 (and .def_64 .def_292)))
(let ((.def_294 (and .def_72 .def_293)))
(let ((.def_38 (not b.counter.0__AT0)))
(let ((.def_268 (or b.counter.1__AT0 .def_38)))
(let ((.def_269 (or b.counter.2__AT0 .def_268)))
(let ((.def_41 (not b.counter.2__AT0)))
(let ((.def_36 (not b.counter.1__AT0)))
(let ((.def_39 (and .def_36 .def_38)))
(let ((.def_267 (or .def_39 .def_41)))
(let ((.def_270 (and .def_267 .def_269)))
(let ((.def_271 (or b.counter.3__AT0 .def_270)))
(let ((.def_264 (or .def_39 b.counter.2__AT0)))
(let ((.def_263 (or .def_36 .def_41)))
(let ((.def_265 (and .def_263 .def_264)))
(let ((.def_44 (not b.counter.3__AT0)))
(let ((.def_266 (or .def_44 .def_265)))
(let ((.def_272 (and .def_266 .def_271)))
(let ((.def_260 (and .def_73 .def_259)))
(let ((.def_257 (or .def_254 .def_256)))
(let ((.def_247 (or .def_146 .def_158)))
(let ((.def_251 (or b.counter.3__AT1 .def_247)))
(let ((.def_248 (or b.counter.2__AT1 .def_247)))
(let ((.def_246 (or .def_153 .def_158)))
(let ((.def_249 (and .def_246 .def_248)))
(let ((.def_250 (or .def_168 .def_249)))
(let ((.def_252 (and .def_250 .def_251)))
(let ((.def_258 (and .def_252 .def_257)))
(let ((.def_261 (and .def_258 .def_260)))
(let ((.def_241 (<= 0.0 b.delta__AT0)))
(let ((.def_57 (not b.EVENT.0__AT0)))
(let ((.def_55 (not b.EVENT.1__AT0)))
(let ((.def_133 (and .def_55 .def_57)))
(let ((.def_134 (not .def_133)))
(let ((.def_242 (or .def_134 .def_241)))
(let ((.def_243 (or b.EVENT.1__AT0 .def_242)))
(let ((.def_190 (= b.counter.0__AT0 b.counter.0__AT1)))
(let ((.def_188 (= b.counter.1__AT0 b.counter.1__AT1)))
(let ((.def_186 (= b.counter.2__AT0 b.counter.2__AT1)))
(let ((.def_185 (= b.counter.3__AT0 b.counter.3__AT1)))
(let ((.def_187 (and .def_185 .def_186)))
(let ((.def_189 (and .def_187 .def_188)))
(let ((.def_191 (and .def_189 .def_190)))
(let ((.def_238 (or .def_134 .def_191)))
(let ((.def_239 (or b.EVENT.1__AT0 .def_238)))
(let ((.def_198 (= b.x__AT1 b.x__AT0)))
(let ((.def_195 (= b.y__AT0 b.y__AT1)))
(let ((.def_232 (and .def_195 .def_198)))
(let ((.def_115 (= b.speed_x__AT0 b.speed_x__AT1)))
(let ((.def_233 (and .def_115 .def_232)))
(let ((.def_184 (= b.speed_y__AT0 b.speed_y__AT1)))
(let ((.def_234 (and .def_184 .def_233)))
(let ((.def_229 (= b.delta__AT0 0.0 )))
(let ((.def_230 (and .def_133 .def_229)))
(let ((.def_231 (not .def_230)))
(let ((.def_235 (or .def_231 .def_234)))
(let ((.def_236 (or b.EVENT.1__AT0 .def_235)))
(let ((.def_209 (= b.time__AT0 b.time__AT1)))
(let ((.def_221 (and .def_198 .def_209)))
(let ((.def_222 (and .def_195 .def_221)))
(let ((.def_223 (and .def_115 .def_222)))
(let ((.def_224 (and .def_184 .def_223)))
(let ((.def_225 (and .def_191 .def_224)))
(let ((.def_226 (or .def_55 .def_225)))
(let ((.def_212 (* (- 1.0) b.time__AT1)))
(let ((.def_215 (+ b.delta__AT0 .def_212)))
(let ((.def_216 (+ b.time__AT0 .def_215)))
(let ((.def_217 (= .def_216 0.0 )))
(let ((.def_218 (or .def_134 .def_217)))
(let ((.def_219 (or b.EVENT.1__AT0 .def_218)))
(let ((.def_210 (or .def_133 .def_209)))
(let ((.def_211 (or b.EVENT.1__AT0 .def_210)))
(let ((.def_220 (and .def_211 .def_219)))
(let ((.def_227 (and .def_220 .def_226)))
(let ((.def_205 (= .def_134 b.event_is_timed__AT1)))
(let ((.def_203 (= b.event_is_timed__AT0 .def_133)))
(let ((.def_206 (and .def_203 .def_205)))
(let ((.def_192 (and .def_184 .def_191)))
(let ((.def_90 (<= 0.0 b.speed_y__AT0)))
(let ((.def_137 (not .def_90)))
(let ((.def_136 (= b.y__AT0 0.0 )))
(let ((.def_138 (and .def_136 .def_137)))
(let ((.def_193 (or .def_138 .def_192)))
(let ((.def_159 (or b.counter.0__AT0 .def_158)))
(let ((.def_157 (or .def_38 b.counter.0__AT1)))
(let ((.def_160 (and .def_157 .def_159)))
(let ((.def_161 (and .def_146 .def_160)))
(let ((.def_162 (or b.counter.1__AT0 .def_161)))
(let ((.def_156 (or .def_36 b.counter.1__AT1)))
(let ((.def_163 (and .def_156 .def_162)))
(let ((.def_176 (and .def_153 .def_163)))
(let ((.def_177 (or b.counter.2__AT0 .def_176)))
(let ((.def_171 (and .def_38 .def_146)))
(let ((.def_172 (or b.counter.1__AT0 .def_171)))
(let ((.def_173 (and .def_156 .def_172)))
(let ((.def_174 (and b.counter.2__AT1 .def_173)))
(let ((.def_175 (or .def_41 .def_174)))
(let ((.def_178 (and .def_175 .def_177)))
(let ((.def_179 (and b.counter.3__AT1 .def_178)))
(let ((.def_180 (or b.counter.3__AT0 .def_179)))
(let ((.def_164 (and b.counter.2__AT1 .def_163)))
(let ((.def_165 (or b.counter.2__AT0 .def_164)))
(let ((.def_150 (or b.counter.1__AT0 b.counter.1__AT1)))
(let ((.def_148 (and .def_146 b.counter.0__AT1)))
(let ((.def_149 (or .def_36 .def_148)))
(let ((.def_151 (and .def_149 .def_150)))
(let ((.def_154 (and .def_151 .def_153)))
(let ((.def_155 (or .def_41 .def_154)))
(let ((.def_166 (and .def_155 .def_165)))
(let ((.def_169 (and .def_166 .def_168)))
(let ((.def_170 (or .def_44 .def_169)))
(let ((.def_181 (and .def_170 .def_180)))
(let ((.def_140 (* (- 1.0) b.speed_y__AT0)))
(let ((.def_143 (* .def_140 .def_142)))
(let ((.def_144 (= b.speed_y__AT1 .def_143)))
(let ((.def_182 (and .def_144 .def_181)))
(let ((.def_139 (not .def_138)))
(let ((.def_183 (or .def_139 .def_182)))
(let ((.def_194 (and .def_183 .def_193)))
(let ((.def_196 (and .def_194 .def_195)))
(let ((.def_197 (and .def_115 .def_196)))
(let ((.def_199 (and .def_197 .def_198)))
(let ((.def_200 (or .def_133 .def_199)))
(let ((.def_201 (or b.EVENT.1__AT0 .def_200)))
(let ((.def_125 (* (- 1.0) b.y__AT1)))
(let ((.def_85 (* b.speed_y__AT0 b.delta__AT0)))
(let ((.def_128 (+ .def_85 .def_125)))
(let ((.def_80 (* b.delta__AT0 b.delta__AT0)))
(let ((.def_84 (* .def_80 .def_83)))
(let ((.def_129 (+ .def_84 .def_128)))
(let ((.def_130 (+ b.y__AT0 .def_129)))
(let ((.def_131 (= .def_130 0.0 )))
(let ((.def_117 (* b.delta__AT0 .def_82)))
(let ((.def_120 (+ .def_117 .def_119)))
(let ((.def_121 (+ b.speed_y__AT0 .def_120)))
(let ((.def_122 (= .def_121 0.0 )))
(let ((.def_107 (* (- 1.0) b.x__AT1)))
(let ((.def_111 (+ .def_107 b.x__AT0)))
(let ((.def_105 (* b.delta__AT0 b.speed_x__AT0)))
(let ((.def_112 (+ .def_105 .def_111)))
(let ((.def_113 (= .def_112 0.0 )))
(let ((.def_116 (and .def_113 .def_115)))
(let ((.def_123 (and .def_116 .def_122)))
(let ((.def_132 (and .def_123 .def_131)))
(let ((.def_135 (or .def_132 .def_134)))
(let ((.def_202 (and .def_135 .def_201)))
(let ((.def_207 (and .def_202 .def_206)))
(let ((.def_228 (and .def_207 .def_227)))
(let ((.def_237 (and .def_228 .def_236)))
(let ((.def_240 (and .def_237 .def_239)))
(let ((.def_244 (and .def_240 .def_243)))
(let ((.def_245 (and .def_55 .def_244)))
(let ((.def_262 (and .def_245 .def_261)))
(let ((.def_273 (and .def_262 .def_272)))
(let ((.def_92 (* b.delta__AT0 .def_91)))
(let ((.def_93 (+ b.speed_y__AT0 .def_92)))
(let ((.def_97 (<= .def_93 0.0 )))
(let ((.def_96 (<= b.speed_y__AT0 0.0 )))
(let ((.def_98 (and .def_96 .def_97)))
(let ((.def_94 (<= 0.0 .def_93)))
(let ((.def_95 (and .def_90 .def_94)))
(let ((.def_99 (or .def_95 .def_98)))
(let ((.def_86 (+ .def_84 .def_85)))
(let ((.def_87 (+ b.y__AT0 .def_86)))
(let ((.def_88 (<= 0.0 .def_87)))
(let ((.def_74 (<= 0.0 b.y__AT0)))
(let ((.def_89 (and .def_74 .def_88)))
(let ((.def_100 (and .def_89 .def_99)))
(let ((.def_101 (and .def_64 .def_100)))
(let ((.def_102 (and .def_72 .def_101)))
(let ((.def_75 (and .def_73 .def_74)))
(let ((.def_58 (or .def_55 .def_57)))
(let ((.def_48 (or .def_36 .def_38)))
(let ((.def_52 (or b.counter.3__AT0 .def_48)))
(let ((.def_49 (or b.counter.2__AT0 .def_48)))
(let ((.def_47 (or .def_38 .def_41)))
(let ((.def_50 (and .def_47 .def_49)))
(let ((.def_51 (or .def_44 .def_50)))
(let ((.def_53 (and .def_51 .def_52)))
(let ((.def_59 (and .def_53 .def_58)))
(let ((.def_76 (and .def_59 .def_75)))
(let ((.def_42 (and .def_39 .def_41)))
(let ((.def_45 (and .def_42 .def_44)))
(let ((.def_33 (= b.speed_y__AT0 0.0 )))
(let ((.def_30 (= b.y__AT0 10.0 )))
(let ((.def_25 (= b.time__AT0 0.0 )))
(let ((.def_27 (and .def_25 b.event_is_timed__AT0)))
(let ((.def_31 (and .def_27 .def_30)))
(let ((.def_34 (and .def_31 .def_33)))
(let ((.def_46 (and .def_34 .def_45)))
(let ((.def_77 (and .def_46 .def_76)))
(let ((.def_17 (or b.counter.1__AT2 .def_9)))
(let ((.def_18 (or b.counter.2__AT2 .def_17)))
(let ((.def_10 (and .def_6 .def_9)))
(let ((.def_16 (or .def_4 .def_10)))
(let ((.def_19 (and .def_16 .def_18)))
(let ((.def_20 (or b.counter.3__AT2 .def_19)))
(let ((.def_11 (or b.counter.2__AT2 .def_10)))
(let ((.def_7 (or .def_4 .def_6)))
(let ((.def_12 (and .def_7 .def_11)))
(let ((.def_15 (or .def_12 .def_14)))
(let ((.def_21 (and .def_15 .def_20)))
(let ((.def_22 (not .def_21)))
(let ((.def_78 (and .def_22 .def_77)))
(let ((.def_103 (and .def_78 .def_102)))
(let ((.def_274 (and .def_103 .def_273)))
(let ((.def_295 (and .def_274 .def_294)))
(let ((.def_453 (and .def_295 .def_452)))
(let ((.def_474 (and .def_453 .def_473)))
.def_474)))))))))))))))))))))))))))))))))))))))))))))))))))))))))))))))))))))))))))))))))))))))))))))))))))))))))))))))))))))))))))))))))))))))))))))))))))))))))))))))))))))))))))))))))))))))))))))))))))))))))))))))))))))))))))))))))))))))))))))))))))))))))))))))))))))))))))))))))))))))))))))))))))))))))))))))))))))))))))))))))))))))))))))))))))))))))))))))))))))))))))))))))))))))))))))))))))))))))))))))))))))))))))))
(check-sat)
(exit)
